p cnf 103 307
c t mc
3 -1 0
3 -2 0
1 2 -3 0
4 -2 -5 0
-4 2 -5 0
4 2 5 0
-4 -2 5 0
-7 -4 0
-7 -6 0
4 6 7 0
-8 5 0
-8 -7 0
-5 7 8 0
-9 3 0
-9 8 0
-3 -8 9 0
-13 -11 0
-13 -12 0
11 12 13 0
14 -10 0
14 -13 0
10 13 -14 0
15 16 -17 0
-15 -16 -17 0
15 -16 17 0
-15 16 17 0
-19 -17 0
-19 18 0
17 -18 19 0
-20 -3 0
-20 19 0
3 -19 20 0
-21 12 0
-21 -20 0
-12 20 21 0
23 21 0
23 22 0
-21 -22 -23 0
-24 -14 0
-24 -23 0
14 23 24 0
-1 24 -25 0
1 -24 -25 0
-1 -24 25 0
1 24 25 0
-26 9 0
-26 25 0
-9 -25 26 0
27 -6 0
27 -18 0
6 18 -27 0
-28 -27 0
-28 -13 0
27 13 28 0
-29 -28 0
-29 11 0
28 -11 29 0
-31 30 0
-31 -20 0
-30 20 31 0
27 -31 -32 0
-27 31 -32 0
27 31 32 0
-27 -31 32 0
-33 29 0
-33 -32 0
-29 32 33 0
-34 14 -35 0
34 -14 -35 0
-34 -14 35 0
34 14 35 0
30 -35 -36 0
-30 35 -36 0
30 35 36 0
-30 -35 36 0
-38 36 0
-38 -37 0
-36 37 38 0
17 35 -39 0
-17 -35 -39 0
17 -35 39 0
-17 35 39 0
2 6 -40 0
-2 -6 -40 0
2 -6 40 0
-2 6 40 0
41 39 0
41 40 0
-39 -40 -41 0
44 -42 0
44 43 0
42 -43 -44 0
45 -44 0
45 36 0
44 -36 -45 0
41 -45 -46 0
-41 45 -46 0
41 45 46 0
-41 -45 46 0
-38 46 -47 0
38 -46 -47 0
-38 -46 47 0
38 46 47 0
-48 33 0
-48 47 0
-33 -47 48 0
6 49 -50 0
-6 -49 -50 0
6 -49 50 0
-6 49 50 0
51 -42 0
51 -50 0
42 50 -51 0
52 -21 0
52 -51 0
21 51 -52 0
-54 22 0
-54 -53 0
-22 53 54 0
-54 -55 -56 0
54 55 -56 0
-54 55 56 0
54 -55 56 0
-52 56 -57 0
52 -56 -57 0
-52 -56 57 0
52 56 57 0
58 -30 0
58 51 0
30 -51 -58 0
12 58 -59 0
-12 -58 -59 0
12 -58 59 0
-12 58 59 0
-60 -57 0
-60 -59 0
57 59 60 0
61 -22 0
61 -43 0
22 43 -61 0
61 -4 -62 0
-61 4 -62 0
61 4 62 0
-61 -4 62 0
62 -17 -63 0
-62 17 -63 0
62 17 63 0
-62 -17 63 0
-64 12 0
-64 30 0
-12 -30 64 0
65 63 0
65 -64 0
-63 64 -65 0
-66 60 0
-66 65 0
-60 -65 66 0
67 -48 0
67 66 0
48 -66 -67 0
68 26 0
68 67 0
-26 -67 -68 0
-70 -69 0
-70 -49 0
69 49 70 0
71 -3 0
71 -70 0
3 70 -71 0
58 -69 -72 0
-58 69 -72 0
58 69 72 0
-58 -69 72 0
-73 -71 0
-73 72 0
71 -72 73 0
75 30 0
75 -4 0
-30 4 -75 0
-76 75 0
-76 13 0
-75 -13 76 0
77 -76 0
77 -13 0
76 13 -77 0
-78 -74 0
-78 -77 0
74 77 78 0
79 73 0
79 -78 0
-73 78 -79 0
-80 -16 0
-80 11 0
16 -11 80 0
-79 -80 -81 0
79 80 -81 0
-79 80 81 0
79 -80 81 0
82 31 0
82 42 0
-31 -42 -82 0
-83 10 0
-83 -21 0
-10 21 83 0
84 -83 0
84 -55 0
83 55 -84 0
-82 -84 -85 0
82 84 -85 0
-82 84 85 0
82 -84 85 0
-86 -19 0
-86 -50 0
19 50 86 0
87 -50 0
87 7 0
50 -7 -87 0
-88 -86 0
-88 87 0
86 -87 88 0
89 -77 0
89 14 0
77 -14 -89 0
90 -54 0
90 89 0
54 -89 -90 0
91 -31 0
91 -58 0
31 58 -91 0
92 -90 0
92 -91 0
90 91 -92 0
-93 -83 0
-93 27 0
83 -27 93 0
-92 93 -94 0
92 -93 -94 0
-92 -93 94 0
92 93 94 0
-53 -18 -95 0
53 18 -95 0
-53 18 95 0
53 -18 95 0
96 -95 0
96 10 0
95 -10 -96 0
-97 51 0
-97 6 0
-51 -6 97 0
96 -97 -98 0
-96 97 -98 0
96 97 98 0
-96 -97 98 0
-94 -98 -99 0
94 98 -99 0
-94 98 99 0
94 -98 99 0
88 99 -100 0
-88 -99 -100 0
88 -99 100 0
-88 99 100 0
-85 -100 -101 0
85 100 -101 0
-85 100 101 0
85 -100 101 0
-102 -81 0
-102 -101 0
81 101 102 0
103 68 0
103 102 0
-68 -102 -103 0
103 77 -74 0
27 97 65 -77 -72 0
-68 27 9 -2 32 -64 -66 103 -91 0
-53 42 -52 0
-25 -19 -52 29 -71 101 66 83 69 0
3 55 -19 44 33 0
87 -17 100 0
17 -91 -7 -82 0
-20 -24 44 -54 0
63 -38 30 -77 0
-79 -89 25 -63 -52 -16 -86 0
-26 -58 -91 15 0
77 14 30 51 -43 46 -89 87 0
66 -62 8 13 91 0
40 17 102 -58 -34 -29 0
-42 -38 -68 -64 48 0
69 -32 87 -17 -56 3 95 -12 0
84 1 -24 98 36 89 -69 0
48 52 91 -99 -97 0
-93 40 -30 -87 63 85 -97 46 0
-34 4 -6 -43 -51 78 90 0
75 33 82 -8 100 -99 45 101 25 34 0
85 31 -43 -55 -64 -94 -48 -62 44 -7 0
-84 59 -46 17 0
-65 41 -73 -70 -18 -16 -20 33 0
-96 83 84 88 47 86 -87 33 0
4 80 -60 -69 40 18 -16 0
-15 62 67 -34 92 58 -75 101 0
17 77 -48 16 -7 10 -69 35 0
82 9 -94 -5 67 102 93 0
1 -85 64 42 15 -60 82 0
-61 52 -21 -60 -29 35 0
-69 -32 -80 6 -78 -36 62 0
64 -97 46 -30 23 -57 38 -14 0
-46 32 94 0
103 0
